(set-logic QF_UF)
(declare-fun A0 () Bool)
(declare-fun A1 () Bool)
(declare-fun A2 () Bool)
(declare-fun A3 () Bool)
(declare-fun A4 () Bool)
(declare-fun A5 () Bool)
(declare-fun A6 () Bool)
(declare-fun A7 () Bool)
(declare-fun A8 () Bool)
(declare-fun A9 () Bool)
(declare-fun A10 () Bool)
(declare-fun A11 () Bool)
(declare-fun A12 () Bool)
(declare-fun A13 () Bool)
(declare-fun A14 () Bool)
(declare-fun A15 () Bool)
(declare-fun A16 () Bool)
(declare-fun A17 () Bool)
(declare-fun A18 () Bool)
(declare-fun A19 () Bool)
(declare-fun A20 () Bool)
(declare-fun A21 () Bool)
(declare-fun A22 () Bool)
(declare-fun A23 () Bool)
(declare-fun A24 () Bool)
(assert (let ((.def_0 (not A10))) (let ((.def_1 (and A13 .def_0))) (let ((.def_2 (not .def_1))) (let ((.def_3 (not A13))) (let ((.def_4 (not A9))) (let ((.def_5 (or .def_4 .def_3))) (let ((.def_6 (not .def_5))) (let ((.def_7 (or .def_6 .def_2))) (let ((.def_8 (not .def_7))) (let ((.def_9 (not A5))) (let ((.def_10 (and A21 .def_9))) (let ((.def_11 (not .def_10))) (let ((.def_12 (not A8))) (let ((.def_13 (or .def_4 .def_12))) (let ((.def_14 (and .def_13 .def_11))) (let ((.def_15 (not .def_14))) (let ((.def_16 (= .def_15 .def_8))) (let ((.def_17 (not .def_16))) (let ((.def_18 (or A14 A20))) (let ((.def_19 (not A11))) (let ((.def_20 (and A24 .def_19))) (let ((.def_21 (not .def_20))) (let ((.def_22 (and .def_21 .def_18))) (let ((.def_23 (and A23 .def_12))) (let ((.def_24 (not .def_23))) (let ((.def_25 (and .def_0 A1))) (let ((.def_26 (and .def_25 .def_24))) (let ((.def_27 (not .def_26))) (let ((.def_28 (or .def_27 .def_22))) (let ((.def_29 (not .def_28))) (let ((.def_30 (and .def_29 .def_17))) (let ((.def_31 (not A19))) (let ((.def_32 (or A14 .def_31))) (let ((.def_33 (not .def_32))) (let ((.def_34 (not A14))) (let ((.def_35 (not A15))) (let ((.def_36 (and .def_35 .def_34))) (let ((.def_37 (not .def_36))) (let ((.def_38 (and .def_37 .def_33))) (let ((.def_39 (not A22))) (let ((.def_40 (not A0))) (let ((.def_41 (and .def_40 .def_39))) (let ((.def_42 (or A23 A17))) (let ((.def_43 (not .def_42))) (let ((.def_44 (or .def_43 .def_41))) (let ((.def_45 (not .def_44))) (let ((.def_46 (and .def_45 .def_38))) (let ((.def_47 (and .def_3 A18))) (let ((.def_48 (not .def_47))) (let ((.def_49 (or A14 A24))) (let ((.def_50 (not .def_49))) (let ((.def_51 (or .def_50 .def_48))) (let ((.def_52 (or A10 A14))) (let ((.def_53 (= A14 A12))) (let ((.def_54 (not .def_53))) (let ((.def_55 (and .def_54 .def_52))) (let ((.def_56 (not .def_55))) (let ((.def_57 (= .def_56 .def_51))) (let ((.def_58 (not .def_57))) (let ((.def_59 (and .def_58 .def_46))) (let ((.def_60 (and .def_59 .def_30))) (let ((.def_61 (not A4))) (let ((.def_62 (or .def_61 A18))) (let ((.def_63 (not .def_62))) (let ((.def_64 (or A8 A6))) (let ((.def_65 (or .def_64 .def_63))) (let ((.def_66 (not .def_65))) (let ((.def_67 (and .def_40 .def_12))) (let ((.def_68 (not A18))) (let ((.def_69 (or .def_68 A19))) (let ((.def_70 (not .def_69))) (let ((.def_71 (and .def_70 .def_67))) (let ((.def_72 (not .def_71))) (let ((.def_73 (or .def_72 .def_66))) (let ((.def_74 (and .def_19 A23))) (let ((.def_75 (not A2))) (let ((.def_76 (and .def_35 .def_75))) (let ((.def_77 (or .def_76 .def_74))) (let ((.def_78 (not .def_77))) (let ((.def_79 (and .def_3 A3))) (let ((.def_80 (not A20))) (let ((.def_81 (and .def_35 .def_80))) (let ((.def_82 (not .def_81))) (let ((.def_83 (or .def_82 .def_79))) (let ((.def_84 (and .def_83 .def_78))) (let ((.def_85 (not .def_84))) (let ((.def_86 (or .def_85 .def_73))) (let ((.def_87 (not A23))) (let ((.def_88 (or .def_34 .def_87))) (let ((.def_89 (not A7))) (let ((.def_90 (and .def_89 .def_89))) (let ((.def_91 (not .def_90))) (let ((.def_92 (or .def_91 .def_88))) (let ((.def_93 (not .def_92))) (let ((.def_94 (and .def_31 A11))) (let ((.def_95 (= A16 .def_80))) (let ((.def_96 (not .def_95))) (let ((.def_97 (or .def_96 .def_94))) (let ((.def_98 (= .def_97 .def_93))) (let ((.def_99 (or .def_19 A23))) (let ((.def_100 (not .def_99))) (let ((.def_101 (or .def_91 .def_100))) (let ((.def_102 (not .def_101))) (let ((.def_103 (or .def_31 A3))) (let ((.def_104 (or .def_75 A0))) (let ((.def_105 (and .def_104 .def_103))) (let ((.def_106 (not .def_105))) (let ((.def_107 (and .def_106 .def_102))) (let ((.def_108 (not .def_107))) (let ((.def_109 (or .def_108 .def_98))) (let ((.def_110 (or .def_109 .def_86))) (let ((.def_111 (not .def_110))) (let ((.def_112 (and .def_111 .def_60))) .def_112))))))))))))))))))))))))))))))))))))))))))))))))))))))))))))))))))))))))))))))))))))))))))))))))))))))))))))))))))
(check-sat)
